(set-logic UF)
(declare-sort Set 0)
(declare-sort Elem 0)
(declare-fun member (Elem Set) Bool)
(declare-fun subset (Set Set) Bool)
(declare-fun seteq (Set Set) Bool)
(declare-fun union (Set Set) Set)
(declare-fun intersection (Set Set) Set)
(declare-fun difference (Set Set) Set)
(declare-fun a () Set)
(declare-fun b () Set)
(assert (not (not (member (choice ((?x Elem)) (not (or (not (member ?x b)) (member ?x (union a b))))) b))))
(assert (not (or (member (choice ((?x Elem)) (not (or (not (member ?x b)) (member ?x (union a b))))) a) (member (choice ((?x Elem)) (not (or (not (member ?x b)) (member ?x (union a b))))) b))))
(assert (or (or (member (choice ((?x Elem)) (not (or (not (member ?x b)) (member ?x (union a b))))) a) (member (choice ((?x Elem)) (not (or (not (member ?x b)) (member ?x (union a b))))) b)) (not (member (choice ((?x Elem)) (not (or (not (member ?x b)) (member ?x (union a b))))) b))))
(check-sat)
(exit)
